words_hard_train/8379.qaiger
aag 89 24 0 1 65
2
4
8
16
20
24
28
30
34
36
42
44
50
52
58
60
72
78
90
102
108
114
128
142
178
6 2 4
10 7 9
12 6 8
14 11 13
18 14 16
22 19 20
26 24 3
32 28 30
38 34 36
40 33 39
46 42 44
48 40 47
54 50 52
56 48 55
62 58 60
64 56 63
66 26 65
68 27 64
70 67 69
74 71 73
76 3 5
80 77 78
82 80 7
84 82 69
86 83 68
88 85 87
92 89 91
94 75 93
96 70 72
98 57 62
100 99 65
104 100 102
106 97 105
110 38 109
112 111 41
116 32 115
118 39 108
120 116 119
122 112 121
124 41 46
126 125 49
130 127 129
132 122 131
134 126 128
136 133 135
138 49 54
140 139 57
144 140 142
146 136 145
148 141 143
150 147 149
152 101 103
154 150 153
156 106 155
158 94 157
160 158 86
162 22 161
164 159 87
166 85 90
168 18 21
170 167 169
172 164 170
174 168 160
176 173 175
178 163 176
i0 1 x1[5]
i1 1 x1[6]
i2 1 x1[7]
i3 2 y1[7]
i4 1 x2[7]
i5 2 y1[5]
i6 1 x1[0]
i7 2 y1[0]
i8 1 x1[1]
i9 2 y1[1]
i10 1 x1[2]
i11 2 y1[2]
i12 1 x1[3]
i13 2 y1[3]
i14 1 x1[4]
i15 2 y1[4]
i16 1 x2[5]
i17 2 y1[6]
i18 1 x2[6]
i19 1 x2[4]
i20 1 x2[1]
i21 1 x2[0]
i22 1 x2[2]
i23 1 x2[3]
o0 bv[0]
c
simplified
  >=
    1 x2
    and
      2 y1
      add
        << 5
          1
        1 x1
