words_hard_train/8379.qaiger.qdimacs
p cnf 89 196
a 64 1 2 4 36 71 10 45 14 17 51 21 54 25 29 57 0
e 3 5 6 7 8 9 11 12 13 15 16 18 19 20 22 23 24 26 27 28 30 31 32 33 34 35 37 38 39 40 41 42 43 44 46 47 48 49 50 52 53 55 56 58 59 60 61 62 63 65 66 67 68 69 70 72 73 74 75 76 77 78 79 80 81 82 83 84 85 86 87 88 89 0
-1 -2 3 0
1 -3 0
2 -3 0
3 4 5 0
-3 -5 0
-4 -5 0
-3 -4 6 0
3 -6 0
4 -6 0
5 6 7 0
-5 -7 0
-6 -7 0
-7 -8 9 0
7 -9 0
8 -9 0
9 -10 11 0
-9 -11 0
10 -11 0
-12 1 13 0
12 -13 0
-1 -13 0
-14 -15 16 0
14 -16 0
15 -16 0
-17 -18 19 0
17 -19 0
18 -19 0
16 19 20 0
-16 -20 0
-19 -20 0
-21 -22 23 0
21 -23 0
22 -23 0
-20 23 24 0
20 -24 0
-23 -24 0
-25 -26 27 0
25 -27 0
26 -27 0
-24 27 28 0
24 -28 0
-27 -28 0
-29 -30 31 0
29 -31 0
30 -31 0
-28 31 32 0
28 -32 0
-31 -32 0
-13 32 33 0
13 -33 0
-32 -33 0
13 -32 34 0
-13 -34 0
32 -34 0
33 34 35 0
-33 -35 0
-34 -35 0
35 36 37 0
-35 -37 0
-36 -37 0
1 2 38 0
-1 -38 0
-2 -38 0
38 -39 40 0
-38 -40 0
39 -40 0
-40 3 41 0
40 -41 0
-3 -41 0
-41 34 42 0
41 -42 0
-34 -42 0
41 -34 43 0
-41 -43 0
34 -43 0
42 43 44 0
-42 -44 0
-43 -44 0
44 45 46 0
-44 -46 0
-45 -46 0
37 46 47 0
-37 -47 0
-46 -47 0
-35 -36 48 0
35 -48 0
36 -48 0
28 -31 49 0
-28 -49 0
31 -49 0
49 32 50 0
-49 -50 0
-32 -50 0
-50 -51 52 0
50 -52 0
51 -52 0
48 52 53 0
-48 -53 0
-52 -53 0
-19 54 55 0
19 -55 0
-54 -55 0
55 20 56 0
-55 -56 0
-20 -56 0
-16 57 58 0
16 -58 0
-57 -58 0
19 -54 59 0
-19 -59 0
54 -59 0
-58 59 60 0
58 -60 0
-59 -60 0
-56 60 61 0
56 -61 0
-60 -61 0
20 -23 62 0
-20 -62 0
23 -62 0
62 24 63 0
-62 -63 0
-24 -63 0
63 64 65 0
-63 -65 0
-64 -65 0
-61 65 66 0
61 -66 0
-65 -66 0
-63 -64 67 0
63 -67 0
64 -67 0
66 67 68 0
-66 -68 0
-67 -68 0
24 -27 69 0
-24 -69 0
27 -69 0
69 28 70 0
-69 -70 0
-28 -70 0
-70 -71 72 0
70 -72 0
71 -72 0
-68 72 73 0
68 -73 0
-72 -73 0
70 71 74 0
-70 -74 0
-71 -74 0
73 74 75 0
-73 -75 0
-74 -75 0
50 51 76 0
-50 -76 0
-51 -76 0
-75 76 77 0
75 -77 0
-76 -77 0
-53 77 78 0
53 -78 0
-77 -78 0
-47 78 79 0
47 -79 0
-78 -79 0
-79 -43 80 0
79 -80 0
43 -80 0
-11 80 81 0
11 -81 0
-80 -81 0
79 43 82 0
-79 -82 0
-43 -82 0
42 -45 83 0
-42 -83 0
45 -83 0
-9 10 84 0
9 -84 0
-10 -84 0
83 84 85 0
-83 -85 0
-84 -85 0
-82 -85 86 0
82 -86 0
85 -86 0
-84 -80 87 0
84 -87 0
80 -87 0
86 87 88 0
-86 -88 0
-87 -88 0
81 -88 89 0
-81 -89 0
88 -89 0
89 0
